100 1276
1 5 -1
1 10 1
1 13 -1
1 17 -1
1 18 -1
1 28 -1
1 29 -1
1 31 1
1 32 1
1 33 -1
1 35 -1
1 36 -1
1 37 1
1 39 1
1 40 1
1 41 1
1 47 1
1 49 -1
1 53 -1
1 54 1
1 60 1
1 61 1
1 64 1
1 68 1
1 73 -1
1 81 -1
1 87 -1
1 97 1
2 14 1
2 22 -1
2 23 1
2 29 1
2 30 1
2 31 -1
2 32 1
2 36 1
2 41 1
2 48 -1
2 49 -1
2 54 1
2 58 1
2 59 -1
2 61 -1
2 69 1
2 75 -1
2 76 -1
2 78 -1
2 84 1
2 88 1
2 99 -1
3 5 -1
3 7 1
3 11 -1
3 16 -1
3 21 1
3 26 1
3 28 -1
3 31 1
3 32 -1
3 37 -1
3 41 1
3 48 -1
3 49 -1
3 50 -1
3 53 1
3 61 1
3 74 1
3 76 1
3 80 1
3 82 -1
3 89 -1
3 90 1
3 96 1
3 100 -1
4 9 -1
4 11 -1
4 18 1
4 22 1
4 29 -1
4 31 1
4 32 1
4 35 1
4 38 1
4 39 -1
4 47 1
4 56 1
4 58 1
4 59 1
4 61 -1
4 63 -1
4 64 1
4 74 1
4 75 1
4 77 1
4 80 1
4 82 -1
4 83 -1
4 84 -1
4 89 1
4 90 1
5 6 -1
5 7 -1
5 14 -1
5 16 1
5 18 -1
5 28 -1
5 29 -1
5 35 1
5 37 -1
5 38 -1
5 43 1
5 46 1
5 47 1
5 50 1
5 55 1
5 57 1
5 59 -1
5 61 1
5 62 -1
5 63 1
5 65 1
5 73 -1
5 74 -1
5 78 -1
5 80 1
5 82 1
5 90 1
5 97 -1
6 7 -1
6 11 1
6 21 1
6 22 -1
6 23 1
6 25 1
6 33 1
6 34 -1
6 41 -1
6 43 -1
6 47 1
6 51 1
6 53 -1
6 61 1
6 63 1
6 67 1
6 77 1
6 85 -1
6 88 -1
6 89 -1
6 91 1
6 92 -1
6 93 1
6 95 1
6 97 -1
6 99 -1
7 10 -1
7 12 -1
7 14 -1
7 15 1
7 17 1
7 18 1
7 24 1
7 25 1
7 27 -1
7 28 -1
7 36 1
7 40 -1
7 41 1
7 50 1
7 61 -1
7 64 1
7 74 1
7 83 -1
7 84 1
8 11 -1
8 12 1
8 13 -1
8 17 -1
8 24 1
8 29 -1
8 35 -1
8 39 1
8 40 -1
8 45 1
8 48 1
8 56 1
8 57 1
8 59 -1
8 62 1
8 66 -1
8 70 1
8 77 1
8 82 -1
8 85 -1
8 87 1
8 91 1
8 92 -1
9 14 1
9 25 -1
9 28 -1
9 29 1
9 30 -1
9 31 -1
9 32 1
9 33 1
9 40 1
9 45 1
9 48 1
9 59 1
9 61 -1
9 62 -1
9 69 -1
9 70 -1
9 83 -1
9 87 1
9 94 -1
9 97 -1
10 13 1
10 14 -1
10 23 1
10 25 -1
10 26 1
10 31 -1
10 34 -1
10 35 1
10 45 -1
10 47 -1
10 53 1
10 55 1
10 57 -1
10 59 -1
10 60 1
10 67 -1
10 73 1
10 80 1
10 84 1
10 89 -1
10 90 1
11 22 -1
11 27 1
11 29 -1
11 30 1
11 32 -1
11 33 -1
11 34 -1
11 35 1
11 37 -1
11 41 -1
11 42 1
11 52 -1
11 58 1
11 59 -1
11 63 1
11 64 -1
11 65 -1
11 66 -1
11 74 1
11 80 1
11 85 -1
11 90 -1
11 98 -1
12 15 -1
12 22 1
12 23 1
12 25 1
12 30 -1
12 35 -1
12 36 1
12 37 -1
12 41 1
12 42 -1
12 43 -1
12 44 1
12 47 1
12 52 1
12 61 -1
12 63 1
12 64 1
12 67 -1
12 68 -1
12 71 1
12 73 1
12 74 1
12 75 -1
12 79 1
12 84 -1
12 85 1
12 86 -1
12 94 -1
12 99 -1
12 100 -1
13 24 -1
13 26 -1
13 31 -1
13 32 1
13 34 1
13 40 -1
13 45 1
13 48 1
13 56 -1
13 57 -1
13 59 1
13 60 1
13 68 1
13 70 -1
13 73 -1
13 75 -1
13 78 -1
13 80 -1
13 83 1
13 87 -1
13 89 1
13 91 -1
13 92 -1
13 97 1
13 98 1
14 15 1
14 17 -1
14 19 -1
14 21 -1
14 22 1
14 27 -1
14 29 1
14 32 -1
14 38 -1
14 39 1
14 41 -1
14 46 -1
14 48 -1
14 53 -1
14 54 -1
14 55 -1
14 57 -1
14 58 1
14 61 -1
14 65 1
14 70 1
14 79 1
14 80 1
14 82 1
14 86 -1
14 87 -1
14 89 1
14 95 1
15 26 1
15 30 1
15 31 -1
15 32 -1
15 35 1
15 39 1
15 40 -1
15 44 1
15 45 1
15 46 -1
15 51 1
15 54 1
15 60 -1
15 61 1
15 64 -1
15 72 1
15 74 1
15 75 -1
15 78 1
15 81 1
15 86 -1
15 88 1
15 90 -1
15 91 1
16 23 1
16 28 -1
16 30 -1
16 33 1
16 36 1
16 38 1
16 39 1
16 46 -1
16 52 1
16 57 1
16 67 1
16 70 1
16 74 -1
16 76 -1
16 79 -1
16 81 1
16 87 -1
16 93 1
16 95 1
16 96 -1
17 20 -1
17 26 1
17 29 -1
17 30 -1
17 31 -1
17 32 -1
17 38 1
17 39 1
17 41 1
17 45 -1
17 50 -1
17 53 -1
17 56 -1
17 67 -1
17 71 1
17 76 -1
17 89 -1
17 90 -1
17 92 1
17 100 -1
18 23 -1
18 42 1
18 49 -1
18 54 1
18 56 1
18 59 -1
18 61 1
18 66 1
18 69 -1
18 86 1
18 87 1
18 91 1
18 93 1
18 96 -1
18 99 1
18 100 1
19 24 -1
19 26 1
19 30 -1
19 32 -1
19 34 -1
19 38 -1
19 43 -1
19 44 1
19 46 -1
19 53 1
19 54 -1
19 56 -1
19 59 -1
19 67 1
19 74 1
19 77 1
19 83 1
19 90 1
19 95 1
19 99 1
20 22 1
20 27 -1
20 29 1
20 30 1
20 32 1
20 34 1
20 36 -1
20 40 -1
20 43 -1
20 46 1
20 51 1
20 52 1
20 53 1
20 57 -1
20 65 -1
20 72 1
20 76 1
20 77 1
20 81 1
20 82 -1
20 83 1
20 89 -1
20 95 1
20 100 -1
21 33 -1
21 38 -1
21 45 1
21 47 -1
21 49 1
21 53 -1
21 57 1
21 59 -1
21 61 -1
21 66 -1
21 68 -1
21 71 1
21 77 -1
21 78 1
21 80 -1
21 83 1
21 87 1
21 91 1
21 93 1
21 97 1
21 98 1
22 23 -1
22 25 1
22 26 1
22 38 -1
22 39 1
22 40 1
22 41 1
22 45 -1
22 50 -1
22 52 1
22 53 -1
22 64 -1
22 66 1
22 67 -1
22 74 -1
22 88 -1
22 89 -1
22 92 1
23 29 -1
23 36 -1
23 38 -1
23 40 1
23 46 -1
23 55 1
23 59 1
23 63 -1
23 64 1
23 70 1
23 71 -1
23 75 -1
23 79 1
23 82 -1
23 83 -1
23 88 1
23 92 -1
23 97 -1
23 99 -1
24 35 -1
24 40 -1
24 45 -1
24 47 -1
24 49 1
24 55 -1
24 56 -1
24 57 -1
24 60 -1
24 63 -1
24 72 1
24 74 -1
24 78 1
24 85 1
24 91 -1
24 93 -1
24 96 -1
24 99 -1
25 26 1
25 32 -1
25 34 -1
25 37 1
25 40 -1
25 41 1
25 48 -1
25 56 -1
25 59 -1
25 66 1
25 69 1
25 71 -1
25 79 1
25 83 1
25 87 -1
25 88 1
25 90 -1
25 93 -1
25 96 1
26 27 1
26 35 1
26 37 -1
26 38 1
26 39 -1
26 51 -1
26 53 -1
26 61 -1
26 63 1
26 64 -1
26 65 -1
26 69 1
26 72 1
26 74 -1
26 80 1
26 81 -1
26 83 1
26 84 1
26 89 -1
26 92 -1
26 95 1
27 30 -1
27 31 -1
27 41 -1
27 42 -1
27 50 -1
27 54 -1
27 64 1
27 72 -1
27 73 1
27 76 -1
27 78 1
27 84 1
27 86 1
27 89 1
27 90 1
28 29 1
28 31 1
28 32 -1
28 39 1
28 40 1
28 41 1
28 47 1
28 55 1
28 56 -1
28 57 1
28 58 1
28 69 -1
28 71 -1
28 72 1
28 96 1
29 32 -1
29 37 1
29 39 -1
29 41 1
29 42 1
29 43 1
29 44 1
29 46 1
29 47 -1
29 54 1
29 58 -1
29 62 -1
29 63 1
29 65 1
29 68 -1
29 72 1
29 74 -1
29 75 1
29 83 1
29 89 -1
29 91 1
29 96 -1
29 97 -1
30 31 1
30 34 1
30 35 -1
30 47 1
30 50 1
30 55 -1
30 59 1
30 62 -1
30 65 1
30 67 -1
30 70 -1
30 71 1
30 72 1
30 80 -1
30 81 1
30 88 -1
30 93 1
30 96 1
31 33 1
31 34 1
31 42 1
31 43 1
31 46 1
31 56 1
31 60 -1
31 66 -1
31 77 1
31 91 -1
31 94 -1
31 97 1
31 99 1
31 100 1
32 36 -1
32 41 -1
32 42 1
32 43 1
32 44 1
32 46 1
32 47 -1
32 51 -1
32 52 1
32 58 -1
32 63 -1
32 64 -1
32 65 -1
32 66 1
32 69 1
32 73 -1
32 83 -1
32 91 1
32 92 -1
32 93 -1
32 94 1
32 95 -1
32 96 -1
32 98 1
32 100 1
33 34 -1
33 36 -1
33 37 1
33 38 -1
33 43 -1
33 46 -1
33 50 1
33 51 -1
33 59 -1
33 60 1
33 63 -1
33 64 -1
33 75 1
33 77 -1
33 79 1
33 80 1
33 83 -1
33 86 -1
33 91 1
33 92 -1
33 97 1
33 100 1
34 37 -1
34 42 1
34 43 1
34 44 -1
34 53 -1
34 55 1
34 59 -1
34 60 -1
34 62 -1
34 72 -1
34 78 1
34 79 -1
34 82 1
34 84 1
34 87 -1
34 88 -1
34 90 -1
34 94 -1
34 97 -1
34 98 1
35 37 -1
35 40 -1
35 45 1
35 51 -1
35 53 -1
35 57 1
35 58 -1
35 70 -1
35 74 -1
35 78 1
35 79 1
35 81 1
35 84 -1
35 85 -1
35 95 -1
35 99 -1
36 42 1
36 44 1
36 48 1
36 62 -1
36 63 -1
36 72 1
36 73 -1
36 81 1
36 85 1
36 88 -1
36 96 1
36 100 1
37 42 -1
37 43 -1
37 44 1
37 52 -1
37 53 -1
37 56 1
37 58 -1
37 59 -1
37 65 1
37 67 -1
37 72 1
37 76 1
37 82 -1
37 90 1
38 40 -1
38 43 1
38 53 -1
38 56 -1
38 63 -1
38 65 1
38 66 1
38 68 -1
38 74 -1
38 75 1
38 81 -1
38 83 1
38 87 1
38 88 -1
39 42 1
39 43 1
39 46 -1
39 50 -1
39 53 -1
39 56 1
39 57 -1
39 59 1
39 60 -1
39 65 -1
39 68 1
39 71 -1
39 72 1
39 81 1
39 83 -1
39 84 1
39 85 1
39 88 1
39 93 -1
39 96 -1
40 50 1
40 51 1
40 52 1
40 55 1
40 56 -1
40 65 1
40 69 -1
40 73 1
40 74 1
40 81 1
40 89 1
40 92 -1
40 93 1
40 95 -1
41 42 -1
41 46 1
41 47 1
41 48 -1
41 49 1
41 60 1
41 91 -1
41 92 1
41 93 1
41 94 -1
41 96 1
41 99 1
42 48 -1
42 49 1
42 61 1
42 64 1
42 67 -1
42 71 -1
42 73 1
42 74 -1
42 75 1
42 84 1
42 88 -1
42 93 -1
42 99 1
42 100 1
43 46 -1
43 48 -1
43 54 1
43 61 -1
43 62 1
43 63 1
43 67 1
43 73 1
43 82 1
43 93 1
43 94 -1
43 96 -1
43 100 -1
44 48 1
44 49 1
44 51 -1
44 55 1
44 56 -1
44 57 1
44 59 1
44 63 -1
44 68 -1
44 72 1
44 74 1
44 78 1
44 80 1
44 83 1
44 87 -1
44 88 1
44 91 -1
44 92 -1
44 94 1
44 97 1
44 99 -1
45 46 -1
45 53 1
45 57 -1
45 58 -1
45 59 -1
45 63 -1
45 64 1
45 65 1
45 66 -1
45 72 -1
45 73 1
45 74 1
45 75 -1
45 78 -1
45 82 -1
45 87 -1
45 88 1
45 95 -1
46 47 -1
46 48 -1
46 50 1
46 52 -1
46 53 1
46 54 1
46 55 1
46 58 -1
46 59 1
46 63 -1
46 64 1
46 68 -1
46 73 -1
46 79 -1
46 84 1
46 91 -1
46 95 1
46 96 -1
46 98 -1
46 100 1
47 50 1
47 57 1
47 59 1
47 61 1
47 70 1
47 74 -1
47 81 1
47 82 1
47 83 -1
47 84 1
47 86 1
47 88 -1
47 89 1
47 93 -1
47 94 -1
47 97 1
48 53 -1
48 54 1
48 55 -1
48 57 -1
48 58 -1
48 66 -1
48 69 1
48 71 1
48 75 -1
48 82 -1
48 86 1
48 96 1
48 100 -1
49 50 1
49 56 1
49 57 -1
49 58 1
49 63 1
49 73 -1
49 78 1
49 85 1
49 88 1
49 92 -1
49 97 1
49 99 1
49 100 -1
50 60 -1
50 61 -1
50 70 1
50 71 -1
50 78 1
50 90 -1
51 52 -1
51 54 1
51 57 -1
51 58 1
51 61 -1
51 63 -1
51 64 -1
51 78 1
51 84 -1
51 85 -1
51 87 -1
51 88 -1
51 96 1
52 53 1
52 55 -1
52 56 1
52 57 1
52 61 1
52 64 -1
52 66 -1
52 68 -1
52 76 -1
52 78 -1
52 86 -1
52 91 -1
52 96 -1
52 98 1
53 62 1
53 66 1
53 69 -1
53 77 1
53 81 -1
53 85 -1
53 90 1
54 56 -1
54 58 1
54 61 -1
54 62 -1
54 64 -1
54 66 -1
54 73 -1
54 74 1
54 75 1
54 78 1
54 83 1
54 84 -1
54 89 1
54 94 1
54 96 -1
54 98 1
55 56 1
55 58 1
55 65 1
55 71 -1
55 78 -1
55 84 1
55 86 -1
55 92 -1
55 94 -1
55 95 -1
55 96 -1
56 65 -1
56 69 1
56 70 1
56 71 -1
56 73 -1
56 78 1
56 82 -1
56 98 -1
57 60 1
57 61 1
57 63 1
57 77 1
57 79 -1
57 80 1
57 85 1
57 92 1
57 97 1
57 98 1
58 62 1
58 68 -1
58 70 1
58 71 -1
58 78 -1
58 83 1
58 86 1
58 89 -1
58 92 1
59 60 1
59 62 -1
59 71 -1
59 78 1
59 79 -1
59 81 1
59 90 -1
59 94 1
60 61 1
60 71 1
60 72 1
60 73 -1
60 75 1
60 77 1
60 80 -1
60 81 -1
60 86 -1
60 87 -1
60 88 -1
60 89 -1
60 91 -1
60 94 1
60 96 -1
60 97 -1
60 100 1
61 76 1
61 83 -1
61 84 -1
61 85 -1
61 86 -1
61 89 1
61 96 1
61 97 -1
62 66 -1
62 69 -1
62 75 1
62 82 1
62 86 -1
62 87 1
62 95 -1
62 96 -1
63 65 -1
63 66 -1
63 76 -1
63 77 1
63 83 1
63 84 -1
63 88 1
63 98 1
64 72 -1
64 80 -1
64 81 -1
64 82 -1
64 83 1
64 84 -1
64 86 -1
64 88 -1
64 89 1
64 96 -1
65 66 1
65 81 -1
65 82 -1
65 83 -1
65 84 -1
65 87 -1
65 90 1
65 94 1
65 97 1
65 98 -1
66 67 -1
66 77 -1
66 78 1
66 82 1
66 84 -1
66 88 1
66 90 1
66 93 1
66 94 1
67 73 1
67 76 1
67 77 1
67 81 -1
67 82 -1
67 86 -1
67 93 1
67 97 -1
68 69 -1
68 70 -1
68 73 -1
68 75 -1
68 76 1
68 77 -1
68 79 1
68 80 1
68 86 1
68 89 -1
68 93 -1
68 95 -1
68 96 1
68 97 1
68 98 -1
68 100 -1
69 70 -1
69 74 1
69 78 1
69 97 -1
69 99 1
70 84 1
70 88 1
70 95 -1
70 96 -1
70 99 -1
71 72 1
71 77 -1
71 83 1
71 97 1
71 98 -1
71 99 -1
72 81 -1
72 82 -1
72 88 1
72 93 -1
72 97 1
73 76 1
73 80 -1
73 81 -1
73 89 -1
73 91 1
74 77 -1
74 82 1
74 83 1
74 85 1
74 98 -1
75 77 -1
75 84 1
75 85 -1
75 86 1
75 90 1
75 99 1
76 82 -1
76 89 -1
76 90 1
76 93 1
77 80 1
77 82 -1
77 85 -1
77 89 -1
77 91 1
77 96 -1
77 97 1
77 100 1
78 80 -1
78 82 -1
78 87 -1
78 91 -1
78 94 -1
78 97 -1
78 100 1
79 84 -1
79 89 1
79 96 1
79 100 -1
80 82 -1
80 87 1
80 88 -1
81 83 1
81 85 -1
81 88 1
81 89 1
81 90 -1
81 94 1
82 89 -1
82 91 -1
82 92 -1
82 98 1
82 99 1
83 94 1
83 95 1
83 97 -1
83 98 1
83 99 1
83 100 1
84 85 1
84 93 -1
84 99 1
84 100 -1
85 90 -1
85 94 1
85 98 1
86 87 -1
86 99 -1
87 89 1
87 91 1
87 95 -1
87 98 1
88 89 -1
88 97 1
88 99 -1
89 100 1
90 92 -1
90 95 -1
90 96 -1
90 97 -1
90 98 -1
91 99 -1
92 95 -1
92 96 -1
92 100 -1
93 95 -1
93 100 -1
94 96 -1
95 98 -1
96 98 1
96 99 1
97 100 -1
98 100 1
99 100 1
